22
3 2 9 26 
3 6 51 41 
3 47 58 38 
3 18 12 17 
3 32 14 48 
3 52 24 60 
3 27 37 53 
3 44 40 1 
2 42 10 
3 36 45 8 
3 7 33 5 
2 4 28 
3 20 54 49 
3 30 55 56 
3 57 50 31 
1 13 
3 34 15 29 
2 22 3 
3 39 59 46 
3 43 21 23 
3 19 35 11 
2 16 25 
